num_plantas = 2;
num_dias = 2;
num_clientes = 3;

coste_produccion = [5, 5];
capacidad_maxima = [100, 100];
demanda_diaria = array2d(1..3, 1..2, [
   0,  0,    
   50, 60,   
   0,  30    
]);

porcentaje_minimo = 50;
pago_por_mw = [20,25,15];
porcentaje_regimen_alto = [100,100];
max_dias_regimen_alto = [2,2];
